
&CONTROL
    calculation = 'scf'
    restart_mode = 'from_scratch'
    prefix = 'Cu_ecut_60Ry_k6'
    pseudo_dir = '/Users/vittoriodibona/Desktop/Tutorial_LAMMPS/Esame/CopperQE/pseudo/'
    outdir = '/Users/vittoriodibona/Desktop/Tutorial_LAMMPS/Esame/CopperQE/tmp/'
    verbosity = 'low'
    tstress = .true.
    tprnfor = .true.
/
&SYSTEM
    ibrav = 1,              ! Cella Cubica Semplice (Supercella 4 atomi)
    celldm(1) = 6.821910820289999, 
    nat = 4,                
    ntyp = 1,
    ecutwfc = 60,
    ecutrho = 600,
    occupations = 'smearing',
    smearing = 'mv',        ! Marzari-Vanderbilt
    degauss = 0.02,         
/
&ELECTRONS
    conv_thr = 1.0d-8
    mixing_beta = 0.7
/
ATOMIC_SPECIES
Cu  63.546  Cu.pbe-dn-kjpaw_psl.1.0.0.UPF
ATOMIC_POSITIONS (crystal)
Cu 0.00 0.00 0.00
Cu 0.50 0.50 0.00
Cu 0.50 0.00 0.50
Cu 0.00 0.50 0.50
K_POINTS automatic
6 6 6 1 1 1
