
&CONTROL
    calculation = 'bands'
    prefix = 'Cu_fcc'
    pseudo_dir = '/Users/vittoriodibona/Desktop/Tutorial_LAMMPS/Esame/CopperQE/pseudo/'
    outdir = '/Users/vittoriodibona/Desktop/Tutorial_LAMMPS/Esame/CopperQE/3_electronic/tmp/'
    verbosity = 'high'
/
&SYSTEM
    ibrav = 1, celldm(1) = 6.858382531877701, nat = 4, ntyp = 1,
    ecutwfc = 80, ecutrho = 800,
    occupations = 'smearing', smearing = 'mv', degauss = 0.01,
/
&ELECTRONS
    conv_thr = 1.0d-8
    diagonalization = 'cg', 
/
ATOMIC_SPECIES
Cu  63.546  Cu.pbe-dn-kjpaw_psl.1.0.0.UPF
ATOMIC_POSITIONS (crystal)
Cu 0.00 0.00 0.00
Cu 0.50 0.50 0.00
Cu 0.50 0.00 0.50
Cu 0.00 0.50 0.50
K_POINTS crystal_b
5
0.00 0.00 0.00  20
0.00 0.00 1.00  20
0.50 0.00 1.00  20
0.75 0.75 0.00  20
0.00 0.00 0.00  0
